; PUSH cw_2 DUP1 SWAP1 SLOAD SWAP1 => PUSH cw_2 SLOAD PUSH cw_2
(set-option :produce-proofs true)
; 
(set-info :status unknown)
(declare-fun storage_t ((_ BitVec 256) (_ BitVec 256) Int (_ BitVec 256)) (_ BitVec 256))
(declare-fun w_2 () (_ BitVec 256))
(declare-fun storage_s ((_ BitVec 256) (_ BitVec 256) Int (_ BitVec 256)) (_ BitVec 256))
(declare-fun exc_halt_t (Int) Bool)
(declare-fun exc_halt_s (Int) Bool)
(declare-fun sc_t (Int) (_ BitVec 6))
(declare-fun stack_t ((_ BitVec 256) (_ BitVec 256) Int (_ BitVec 6)) (_ BitVec 256))
(declare-fun stack_s ((_ BitVec 256) (_ BitVec 256) Int (_ BitVec 6)) (_ BitVec 256))
(declare-fun sc_s (Int) (_ BitVec 6))
(declare-fun used_gas_t ((_ BitVec 256) (_ BitVec 256) Int) Int)
(declare-fun used_gas_s ((_ BitVec 256) (_ BitVec 256) Int) Int)
(assert
 (exists ((x_SLOAD_0 (_ BitVec 256)) )(let (($x4380 (forall ((w (_ BitVec 256)) )(let ((?x3572 (storage_t x_SLOAD_0 w_2 3 w)))
 (let ((?x10673 (storage_s x_SLOAD_0 w_2 5 w)))
 (= ?x10673 ?x3572))))
 ))
 (let (($x418 (exc_halt_t 3)))
 (let (($x1862 (exc_halt_s 5)))
 (let (($x5454 (= $x1862 $x418)))
 (let (($x9416 (forall ((n (_ BitVec 6)) )(let ((?x9232 (sc_t 3)))
 (let (($x3530 (bvsle ?x9232 n)))
 (let ((?x1481 (stack_t x_SLOAD_0 w_2 3 n)))
 (let ((?x11171 (stack_s x_SLOAD_0 w_2 5 n)))
 (let (($x3404 (= ?x11171 ?x1481)))
 (or $x3404 $x3530)))))))
 ))
 (let ((?x9232 (sc_t 3)))
 (let ((?x4319 (sc_s 5)))
 (let (($x6228 (= ?x4319 ?x9232)))
 (let ((?x5956 (used_gas_t x_SLOAD_0 w_2 0)))
 (let ((?x5165 (used_gas_s x_SLOAD_0 w_2 0)))
 (let (($x4063 (= ?x5165 ?x5956)))
 (let (($x4691 (forall ((w (_ BitVec 256)) )(let ((?x7721 (storage_t x_SLOAD_0 w_2 0 w)))
 (let ((?x4004 (storage_s x_SLOAD_0 w_2 0 w)))
 (= ?x4004 ?x7721))))
 ))
 (let (($x56 (exc_halt_t 0)))
 (let (($x57 (exc_halt_s 0)))
 (let (($x58 (= $x57 $x56)))
 (let (($x5368 (forall ((n (_ BitVec 6)) )(let ((?x4453 (stack_t x_SLOAD_0 w_2 0 n)))
 (let ((?x1909 (stack_s x_SLOAD_0 w_2 0 n)))
 (let (($x9652 (= ?x1909 ?x4453)))
 (let ((?x63 (sc_t 0)))
 (let (($x2738 (bvsle ?x63 n)))
 (or $x2738 $x9652)))))))
 ))
 (let ((?x63 (sc_t 0)))
 (let ((?x72 (sc_s 0)))
 (let (($x73 (= ?x72 ?x63)))
 (let (($x1842 (not (= ((_ extract 6 6) (bvadd (_ bv1 7) (concat (_ bv0 1) (sc_t 2)))) (_ bv0 1)))))
 (let (($x7905 (exc_halt_t 2)))
 (let (($x9131 (= $x418 (or $x7905 $x1842))))
 (let (($x9557 (forall ((w (_ BitVec 256)) )(let ((?x4105 (storage_t x_SLOAD_0 w_2 2 w)))
 (let ((?x3572 (storage_t x_SLOAD_0 w_2 3 w)))
 (= ?x3572 ?x4105))))
 ))
 (let (($x8173 (forall ((n (_ BitVec 6)) )(let ((?x11248 (sc_t 2)))
 (let (($x9965 (bvsle ?x11248 n)))
 (or (= (stack_t x_SLOAD_0 w_2 3 n) (stack_t x_SLOAD_0 w_2 2 n)) $x9965))))
 ))
 (let (($x6668 (= ?x9232 (bvadd (_ bv1 6) (sc_t 2)))))
 (let (($x8181 (= (used_gas_t x_SLOAD_0 w_2 3) (+ 3 (used_gas_t x_SLOAD_0 w_2 2)))))
 (let (($x4506 (= $x7905 (or (exc_halt_t 1) (not (bvsle (_ bv0 6) (bvadd (_ bv63 6) (sc_t 1))))))))
 (let (($x8053 (forall ((w (_ BitVec 256)) )(let ((?x3720 (storage_t x_SLOAD_0 w_2 1 w)))
 (let ((?x4105 (storage_t x_SLOAD_0 w_2 2 w)))
 (= ?x4105 ?x3720))))
 ))
 (let (($x6816 (forall ((n (_ BitVec 6)) )(let ((?x9666 (sc_t 1)))
 (let ((?x10665 (bvadd (_ bv63 6) ?x9666)))
 (let (($x5116 (bvsle ?x10665 n)))
 (or $x5116 (= (stack_t x_SLOAD_0 w_2 2 n) (stack_t x_SLOAD_0 w_2 1 n)))))))
 ))
 (let ((?x9666 (sc_t 1)))
 (let ((?x11248 (sc_t 2)))
 (let (($x5105 (= ?x11248 ?x9666)))
 (let ((?x9641 (used_gas_t x_SLOAD_0 w_2 2)))
 (let ((?x10377 (storage_t x_SLOAD_0 w_2 1 (stack_t x_SLOAD_0 w_2 1 (bvadd (_ bv63 6) ?x9666)))))
 (let (($x4852 (exc_halt_t 1)))
 (let (($x489 (= $x4852 (or $x56 (not (= ((_ extract 6 6) (bvadd (_ bv1 7) (concat (_ bv0 1) ?x63))) (_ bv0 1)))))))
 (let (($x10067 (forall ((w (_ BitVec 256)) )(let ((?x7721 (storage_t x_SLOAD_0 w_2 0 w)))
 (let ((?x3720 (storage_t x_SLOAD_0 w_2 1 w)))
 (= ?x3720 ?x7721))))
 ))
 (let (($x8444 (forall ((n (_ BitVec 6)) )(let ((?x63 (sc_t 0)))
 (let (($x2738 (bvsle ?x63 n)))
 (or $x2738 (= (stack_t x_SLOAD_0 w_2 1 n) (stack_t x_SLOAD_0 w_2 0 n))))))
 ))
 (let (($x3631 (= ?x9666 (bvadd (_ bv1 6) ?x63))))
 (let (($x3979 (= $x1862 (or (exc_halt_s 4) (not (bvsle (_ bv0 6) (bvadd (_ bv62 6) (sc_s 4))))))))
 (let (($x8726 (forall ((w (_ BitVec 256)) )(let ((?x1816 (storage_s x_SLOAD_0 w_2 4 w)))
 (let ((?x10673 (storage_s x_SLOAD_0 w_2 5 w)))
 (= ?x10673 ?x1816))))
 ))
 (let (($x6747 (forall ((n (_ BitVec 6)) )(let ((?x9433 (sc_s 4)))
 (let ((?x1557 (bvadd (_ bv62 6) ?x9433)))
 (let (($x5610 (bvsle ?x1557 n)))
 (or $x5610 (= (stack_s x_SLOAD_0 w_2 5 n) (stack_s x_SLOAD_0 w_2 4 n)))))))
 ))
 (let ((?x9433 (sc_s 4)))
 (let (($x11305 (= ?x4319 ?x9433)))
 (let (($x10819 (= (used_gas_s x_SLOAD_0 w_2 5) (+ 3 (used_gas_s x_SLOAD_0 w_2 4)))))
 (let ((?x11699 (bvadd (_ bv63 6) ?x9433)))
 (let ((?x10365 (stack_s x_SLOAD_0 w_2 4 ?x11699)))
 (let (($x2058 (= (stack_s x_SLOAD_0 w_2 5 (bvadd (_ bv63 6) ?x4319)) (stack_s x_SLOAD_0 w_2 4 (bvadd (_ bv62 6) ?x9433)))))
 (let (($x9175 (exc_halt_s 4)))
 (let (($x7454 (= $x9175 (or (exc_halt_s 3) (not (bvsle (_ bv0 6) (bvadd (_ bv63 6) (sc_s 3))))))))
 (let (($x3446 (forall ((w (_ BitVec 256)) )(let ((?x11034 (storage_s x_SLOAD_0 w_2 3 w)))
 (let ((?x1816 (storage_s x_SLOAD_0 w_2 4 w)))
 (= ?x1816 ?x11034))))
 ))
 (let (($x9470 (forall ((n (_ BitVec 6)) )(or (= (stack_s x_SLOAD_0 w_2 4 n) (stack_s x_SLOAD_0 w_2 3 n)) (bvsle (bvadd (_ bv63 6) (sc_s 3)) n)))
 ))
 (let ((?x3851 (sc_s 3)))
 (let (($x2630 (= ?x9433 ?x3851)))
 (let ((?x7043 (used_gas_s x_SLOAD_0 w_2 4)))
 (let ((?x3690 (bvadd (_ bv63 6) ?x3851)))
 (let ((?x9548 (stack_s x_SLOAD_0 w_2 3 ?x3690)))
 (let (($x8103 (exc_halt_s 3)))
 (let (($x8533 (= $x8103 (or (exc_halt_s 2) (not (bvsle (_ bv0 6) (bvadd (_ bv62 6) (sc_s 2))))))))
 (let (($x1777 (forall ((w (_ BitVec 256)) )(let ((?x5892 (storage_s x_SLOAD_0 w_2 2 w)))
 (let ((?x11034 (storage_s x_SLOAD_0 w_2 3 w)))
 (= ?x11034 ?x5892))))
 ))
 (let (($x11766 (forall ((n (_ BitVec 6)) )(let ((?x2272 (sc_s 2)))
 (let ((?x5515 (bvadd (_ bv62 6) ?x2272)))
 (let (($x190 (bvsle ?x5515 n)))
 (or $x190 (= (stack_s x_SLOAD_0 w_2 3 n) (stack_s x_SLOAD_0 w_2 2 n)))))))
 ))
 (let ((?x2272 (sc_s 2)))
 (let (($x8449 (= ?x3851 ?x2272)))
 (let ((?x2748 (used_gas_s x_SLOAD_0 w_2 3)))
 (let ((?x9840 (bvadd (_ bv63 6) ?x2272)))
 (let ((?x9915 (stack_s x_SLOAD_0 w_2 2 ?x9840)))
 (let (($x8780 (exc_halt_s 1)))
 (let (($x8650 (not (bvsle (_ bv0 6) (bvadd (_ bv63 6) (sc_s 1))))))
 (let (($x672 (not (= ((_ extract 6 6) (bvadd (_ bv1 7) (concat (_ bv0 1) (sc_s 1)))) (_ bv0 1)))))
 (let (($x10052 (exc_halt_s 2)))
 (let (($x968 (= $x10052 (or $x672 $x8650 $x8780))))
 (let (($x8509 (forall ((w (_ BitVec 256)) )(let ((?x5904 (storage_s x_SLOAD_0 w_2 1 w)))
 (let ((?x5892 (storage_s x_SLOAD_0 w_2 2 w)))
 (= ?x5892 ?x5904))))
 ))
 (let (($x973 (forall ((n (_ BitVec 6)) )(let ((?x154 (sc_s 1)))
 (let ((?x1005 (bvadd (_ bv63 6) ?x154)))
 (let (($x1223 (bvsle ?x1005 n)))
 (or (= (stack_s x_SLOAD_0 w_2 2 n) (stack_s x_SLOAD_0 w_2 1 n)) $x1223)))))
 ))
 (let (($x7044 (= ?x2272 (bvadd (_ bv1 6) (sc_s 1)))))
 (let ((?x4811 (used_gas_s x_SLOAD_0 w_2 2)))
 (let ((?x154 (sc_s 1)))
 (let ((?x1005 (bvadd (_ bv63 6) ?x154)))
 (let ((?x3640 (stack_s x_SLOAD_0 w_2 1 ?x1005)))
 (let (($x10729 (= $x8780 (or $x57 (not (= ((_ extract 6 6) (bvadd (_ bv1 7) (concat (_ bv0 1) ?x72))) (_ bv0 1)))))))
 (let (($x2384 (forall ((w (_ BitVec 256)) )(let ((?x4004 (storage_s x_SLOAD_0 w_2 0 w)))
 (let ((?x5904 (storage_s x_SLOAD_0 w_2 1 w)))
 (= ?x5904 ?x4004))))
 ))
 (let (($x4065 (forall ((n (_ BitVec 6)) )(let ((?x72 (sc_s 0)))
 (let (($x8299 (bvsle ?x72 n)))
 (or (= (stack_s x_SLOAD_0 w_2 1 n) (stack_s x_SLOAD_0 w_2 0 n)) $x8299))))
 ))
 (let (($x4778 (= ?x154 (bvadd (_ bv1 6) ?x72))))
 (let (($x5417 (forall ((w (_ BitVec 256)) )(let ((?x10093 (ite (= w (stack_s x_SLOAD_0 w_2 3 (bvadd (_ bv63 6) (sc_s 3)))) x_SLOAD_0 (_ bv0 256))))
 (let ((?x4004 (storage_s x_SLOAD_0 w_2 0 w)))
 (= ?x4004 ?x10093))))
 ))
 (let (($x498 (= ?x5165 0)))
 (let (($x2276 (not $x57)))
 (let (($x4825 (= ?x72 (_ bv0 6))))
 (and $x4825 $x2276 $x498 $x5417 (= (stack_s x_SLOAD_0 w_2 1 ?x72) w_2) (= (used_gas_s x_SLOAD_0 w_2 1) (+ 3 ?x5165)) $x4778 $x4065 $x2384 $x10729 (= ?x9915 ?x3640) (= (stack_s x_SLOAD_0 w_2 2 ?x1005) ?x3640) (= ?x4811 (+ 3 (used_gas_s x_SLOAD_0 w_2 1))) $x7044 $x973 $x8509 $x968 (= ?x9548 (stack_s x_SLOAD_0 w_2 2 (bvadd (_ bv62 6) ?x2272))) (= (stack_s x_SLOAD_0 w_2 3 (bvadd (_ bv62 6) ?x3851)) ?x9915) (= ?x2748 (+ 3 ?x4811)) $x8449 $x11766 $x1777 $x8533 (= ?x10365 (storage_s x_SLOAD_0 w_2 3 ?x9548)) (= ?x7043 (+ 200 ?x2748)) $x2630 $x9470 $x3446 $x7454 $x2058 (= (stack_s x_SLOAD_0 w_2 5 (bvadd (_ bv62 6) ?x4319)) ?x10365) $x10819 $x11305 $x6747 $x8726 $x3979 (= (stack_t x_SLOAD_0 w_2 1 ?x63) w_2) (= (used_gas_t x_SLOAD_0 w_2 1) (+ 3 ?x5956)) $x3631 $x8444 $x10067 $x489 (= (stack_t x_SLOAD_0 w_2 2 (bvadd (_ bv63 6) ?x11248)) ?x10377) (= ?x9641 (+ 200 (used_gas_t x_SLOAD_0 w_2 1))) $x5105 $x6816 $x8053 $x4506 (= (stack_t x_SLOAD_0 w_2 3 ?x11248) w_2) $x8181 $x6668 $x8173 $x9557 $x9131 $x73 $x5368 $x58 $x4691 $x4063 (not (and $x6228 $x9416 $x5454 $x4380))))))))))))))))))))))))))))))))))))))))))))))))))))))))))))))))))))))))))))))))))))))))))
 )
(check-sat)
(get-proof)
